c 170_4_checker_5cl.cnf
c
c field = 170
c formula set type = 4_checker_5cl
c
p cnf 5 10
330 
332 
334 
336 
-340 
331 
333 
335 
337 
-341 
308 
368 
398 
428 
-278 
309 
369 
399 
429 
-279 
210 
242 
274 
306 
-370 
211 
243 
275 
307 
-371 
306 
370 
402 
434 
-274 
307 
371 
403 
435 
-275 
310 
366 
394 
422 
-282 
311 
367 
395 
423 
-283 
